
Gurobi 6.5.2 (linux64) logging started Mon Dec 12 22:09:08 2016


Gurobi 6.5.2 (linux64) logging started Mon Dec 12 22:09:08 2016

Optimize a model with 41 rows, 77 columns and 187 nonzeros
Coefficient statistics:
  Matrix range    [1e+00, 2e+00]
  Objective range [2e+00, 1e+02]
  Bounds range    [1e+00, 1e+00]
  RHS range       [1e+00, 1e+00]
Found heuristic solution: objective 804
Presolve removed 14 rows and 5 columns
Presolve time: 0.00s
Presolved: 27 rows, 72 columns, 145 nonzeros
Variable types: 0 continuous, 72 integer (72 binary)

Root relaxation: objective 5.670000e+02, 32 iterations, 0.00 seconds

    Nodes    |    Current Node    |     Objective Bounds      |     Work
 Expl Unexpl |  Obj  Depth IntInf | Incumbent    BestBd   Gap | It/Node Time

     0     0  567.00000    0   10  804.00000  567.00000  29.5%     -    0s
H    0     0                     768.0000000  567.00000  26.2%     -    0s
H    0     0                     615.0000000  567.00000  7.80%     -    0s
     0     0  577.50000    0    4  615.00000  577.50000  6.10%     -    0s
     0     0  584.50000    0   14  615.00000  584.50000  4.96%     -    0s
     0     0  584.75000    0   20  615.00000  584.75000  4.92%     -    0s
     0     0  584.75000    0    7  615.00000  584.75000  4.92%     -    0s
     0     0  584.75000    0    9  615.00000  584.75000  4.92%     -    0s
     0     0  584.75000    0   14  615.00000  584.75000  4.92%     -    0s
     0     0  584.75000    0   19  615.00000  584.75000  4.92%     -    0s
     0     0  585.00000    0   17  615.00000  585.00000  4.88%     -    0s
     0     0  585.00000    0   18  615.00000  585.00000  4.88%     -    0s
     0     2  585.00000    0   18  615.00000  585.00000  4.88%     -    0s
*   13     0               6     611.0000000  601.50000  1.55%   3.1    0s

Cutting planes:
  Gomory: 5
  Cover: 19
  Clique: 3
  MIR: 2
  Zero half: 1
  Mod-K: 1
  Lazy constraints: 3

Explored 15 nodes (130 simplex iterations) in 0.02 seconds
Thread count was 8 (of 8 available processors)

Optimal solution found (tolerance 1.00e-04)
Best objective 6.110000000000e+02, best bound 6.110000000000e+02, gap 0.0%
